27778
1334
16279
3125
10411
31957
10869
8351
18505
26375
15194
8462
15923
8835
23842
4141
4469
21324
9640
26607
9048
6806
4221
3374
19678
5512
17207
25807
29309
28534
15984
26748
24356
13618
26296
31257
3829
7337
12272
28734
4771
4750
24577
30065
23154
29315
3727
20226
6331
15420
12479
31127
13373
5892
5306
21548
5938
1079
25453
2763
10946
26490
805
30863
3595
314
12335
6839
29512
147
24206
29397
10541
22818
30882
26629
17497
15597
3057
15333
18600
18739
24878
12511
14772
32688
9312
8450
6011
19622
19153
4508
19860
21773
27870
31450
347
32097
786
14171
